15
1 0 3
2 0 6
2 1 1
3 0 8
3 1 4
3 2 8
4 0 9
4 1 1
4 2 3
4 3 2
5 0 2
5 1 9
5 2 5
5 3 6
5 4 6
6 0 9
6 1 3
6 2 6
6 3 3
6 4 3
6 5 9
7 0 10
7 1 5
7 2 4
7 3 8
7 4 6
7 5 8
7 6 1
8 0 9
8 1 1
8 2 5
8 3 5
8 4 10
8 5 6
8 6 10
8 7 1
9 0 8
9 1 2
9 2 9
9 3 10
9 4 9
9 5 10
9 6 7
9 7 1
9 8 5
10 0 10
10 1 9
10 2 6
10 3 1
10 4 9
10 5 3
10 6 5
10 7 6
10 8 10
10 9 2
11 0 3
11 1 8
11 2 8
11 3 3
11 4 5
11 5 7
11 6 4
11 7 7
11 8 2
11 9 7
11 10 5
12 0 10
12 1 4
12 2 7
12 3 6
12 4 8
12 5 3
12 6 3
12 7 8
12 8 3
12 9 10
12 10 1
12 11 6
13 0 7
13 1 2
13 2 3
13 3 4
13 4 3
13 5 8
13 6 4
13 7 1
13 8 10
13 9 10
13 10 1
13 11 7
13 12 10
14 0 9
14 1 1
14 2 2
14 3 10
14 4 3
14 5 7
14 6 5
14 7 9
14 8 4
14 9 7
14 10 6
14 11 8
14 12 9
14 13 8
